10	5
0	4	1	3	2	8
1	1	10
2	1	6
3	0
4	0
5	0
6	1	4
7	2	9	10
8	1	7
9	1	11
10	1	11
11	0
0	0	0	0	0	0	0
1	6	3	1	3	1	1
2	4	3	0	2	0	2
3	5	2	2	5	3	2
4	7	1	2	1	5	4
5	8	2	2	0	2	0
6	9	2	0	0	0	1
7	3	1	5	1	2	4
8	10	0	2	4	0	0
9	7	3	1	3	0	4
10	10	0	3	2	1	1
11	0	0	0	0	0	0
4	6	7	6	5
